0 17 40 32 44 3 49 24 18 55 25 9 39 72 12 0
0 30 74 21 47 36 69 71 60 70 20 37 5 29 45 4 0
0 51 16 63 23 56 41 43 42 64 22 28 62 73 33 68 75 0
0 26 58 38 65 66 11 53 35 19 54 13 57 15 27 52 0
0 34 46 67 0
